# Objective value = 44
WA1n 0
WA1p 0
WA2n 0
WA2p 1
WB1n 0
WB1p 0
WB2n 0
WB2p 1
WC1n 0
WC1p 0
WC2n 0
WC2p 1
WD1n 0
WD1p 0
WD2n 0
WD2p 1
WE1n 0
WE1p 2
WF1n 2
WF1p 0
WF2n 1
WF2p 0
WG1n 4
WG1p 0
WG2n 1
WG2p 0
WH1n 4
WH1p 0
WH2n 1
WH2p 0
WI1n 4
WI1p 0
WI2n 1
WI2p 0
WJ1n 0
WJ1p 4
WJ2n 0
WJ2p 1
WT1n 0
WT1p 4
WT2n 0
WT2p 1
5 7
a 0
b 1
c 0
d 1
e 0
f 1
g 0
h 1
i 1
j 0
k 0
l 0
m 0
n 0
o 0
p 0
q 0
r 1
s 1
t 1
u 1
